ass01/p3/ass01-3b.log
\ Model ass01-3b.lp
\ LP format - for model browsing. Use MPS format to capture full model detail.
Minimize
  1000 x1 + 1000 x2
Subject To
 1: 0.75 x1 + 0.25 x2 >= 9000
 2: 0.25 x1 + 0.75 x2 >= 13000
 3: x1 >= 0
 4: x2 >= 0
Bounds
End

report.py v.0.96 output from ass01-3b.lp at 12:13 PM on 01/23/2020:

        OBJECTIVE FUNCTION VALUE

        0)      22000000

  VARIABLE        VALUE          REDUCED COST
        x1             7000                 0
        x2            15000                 0

       ROW   SLACK OR SURPLUS     DUAL PRICES
        1)                0             -1000
        2)                0             -1000
        3)             7000                 0
        4)            15000                 0

 NO. ITERATIONS=       2

 RANGES IN WHICH THE BASIS IS UNCHANGED:

                           OBJ COEFFICIENT RANGES
 VARIABLE         CURRENT        ALLOWABLE        ALLOWABLE
                   COEF          INCREASE         DECREASE
       x1            1000             2000        666.66667
       x2            1000             2000        666.66667

                           RIGHTHAND SIDE RANGES
      ROW         CURRENT        ALLOWABLE        ALLOWABLE
                    RHS          INCREASE         DECREASE
        1            9000            30000        4666.6667
        2           13000            14000            10000
        3               0             7000              inf
        4               0            15000              inf
